Maximize
  - 3.6220211320255 edge_0_1_0_0 - 0.5506798598511 edge_0_3_0_0
   + 0.6925478406583799 edge_0_7_0_0 + 0.207333629816 edge_0_26_0_0
   - 0.13518852793225 edge_1_2_0_0 - 0.2282673294162479 edge_1_3_0_0
   + 0.03818579944641 edge_2_1_0_0 + 0.5445189285462501 edge_2_3_0_0
   - 0.3323207216607 edge_2_4_0_0 + 0.37550697746958 edge_2_5_0_0
   + 0.32197858849702 edge_2_6_0_0 - 0.40954199617006 edge_2_7_0_0
   + 1.482834662067666 edge_3_1_0_0 + 1.7542104403355 edge_3_2_0_0
   + 1.504725190112057 edge_3_4_0_0 + 2.325263933500656 edge_3_5_0_0
   + 1.559602551385256 edge_3_6_0_0 + 1.267086490503902 edge_3_7_0_0
   + 0.7762358347589378 edge_3_8_0_0 + 0.4792351093551003 edge_3_9_0_0
   + 0.2873503348814416 edge_3_12_0_0 + 0.5444263072632889 edge_3_13_0_0
   + 0.1283130312849188 edge_3_17_0_0 + 1.446544123258586 edge_3_19_0_0
   + 0.2109872343587061 edge_3_20_0_0 - 0.3120406447712268 edge_3_23_0_0
   + 1.918718310840492 edge_3_24_0_0 - 1.246203878996616 edge_3_26_0_0
   + 0.280300965600541 edge_4_5_0_0 + 0.1800271198303702 edge_4_6_0_0
   - 0.209757367512285 edge_4_7_0_0 + 0.00154110814914051 edge_5_1_0_0
   + 0.07380799557152 edge_5_2_0_0 + 0.1786509972999895 edge_5_3_0_0
   + 3.176784863684397 edge_5_4_0_0 + 2.359270848026341 edge_5_6_0_0
   + 0.7147715705289731 edge_5_7_0_0 + 0.4823892671209623 edge_5_8_0_0
   - 0.1873891515339403 edge_5_9_0_0 + 0.145205790766452 edge_5_12_0_0
   + 0.3887299855523995 edge_5_13_0_0 - 0.3636825038577285 edge_5_14_0_0
   - 0.1294739480825227 edge_5_15_0_0 + 0.1241447887491822 edge_5_17_0_0
   + 0.7631069290182616 edge_5_19_0_0 - 0.8514390706430027 edge_5_27_0_0
   - 1.020139365828435 edge_5_28_0_0 - 0.7364695355312085 edge_6_4_0_0
   - 0.5574279984314582 edge_6_5_0_0 + 0.8114167210467348 edge_7_1_0_0
   + 0.32273532659832 edge_7_2_0_0 + 0.8033061790430336 edge_7_3_0_0
   + 0.1802917882638201 edge_7_4_0_0 + 0.7517941983440454 edge_7_5_0_0
   + 0.9636193485348261 edge_7_6_0_0 + 2.515265471134822 edge_7_8_0_0
   + 0.5822934220188108 edge_7_9_0_0 + 0.5423596807300519 edge_7_12_0_0
   + 0.87561948198717 edge_7_13_0_0 - 0.1333968245199054 edge_7_14_0_0
   + 0.1049422603922693 edge_7_15_0_0 + 0.4890047181110654 edge_7_17_0_0
   + 1.918012381409668 edge_7_19_0_0 + 0.3791122634872265 edge_7_20_0_0
   - 0.5121786677341416 edge_7_21_0_0 + 0.0799612411993191 edge_7_23_0_0
   + 1.869047946017147 edge_7_24_0_0 - 0.4118164492455278 edge_7_26_0_0
   - 0.5892055503981164 edge_7_27_0_0 - 0.3292749662972097 edge_7_31_0_0
   - 0.4429074696736029 edge_8_4_0_0 - 0.0769036191339016 edge_8_9_0_0
   + 0.631845627654257 edge_9_12_0_0 + 1.074946736701831 edge_9_14_0_0
   + 0.00448323688487771 edge_9_15_0_0 + 0.18170054674914 edge_12_8_0_0
   + 0.6340627195828493 edge_12_9_0_0 + 0.2877646730728911 edge_12_13_0_0
   + 0.2068513822683878 edge_12_14_0_0 + 0.1382031685575321 edge_12_15_0_0
   + 0.3835795949271224 edge_12_17_0_0 + 0.3218786296096865 edge_12_19_0_0
   + 0.0406207189051777 edge_12_22_0_0 + 0.0476701151672972 edge_12_23_0_0
   + 0.6310840975871976 edge_12_24_0_0 - 0.00795006595110496 edge_12_26_0_0
   - 0.5348135519759141 edge_12_28_0_0 - 0.1000748212201929 edge_13_15_0_0
   - 0.0988924947866188 edge_13_17_0_0 + 0.225015615986882 edge_14_15_0_0
   + 0.3546001726366464 edge_14_17_0_0 + 0.2509297484971601 edge_15_14_0_0
   + 0.1870990328910002 edge_15_17_0_0 - 0.4896651444855455 edge_17_1_0_0
   - 0.65171396157441 edge_17_2_0_0 - 0.1833537562776422 edge_17_4_0_0
   - 0.033803877115376 edge_17_8_0_0 + 0.5390412514912113 edge_17_9_0_0
   + 0.1802540257023737 edge_17_12_0_0 + 0.6663260509927388 edge_17_13_0_0
   + 1.584177772695835 edge_17_14_0_0 + 0.7387883744761469 edge_17_15_0_0
   + 0.822151491192381 edge_17_17_0_0 + 0.9883294446664119 edge_17_19_0_0
   + 0.7130415033525902 edge_17_20_0_0 - 0.2441113271613069 edge_17_21_0_0
   + 0.3753246320250589 edge_17_22_0_0 + 0.0163682302891287 edge_17_23_0_0
   + 1.277017604428933 edge_17_24_0_0 - 0.00522781071415947 edge_17_26_0_0
   - 0.7436005171753515 edge_17_27_0_0 + 0.0242634744300826 edge_19_21_0_0
   + 0.7443765874718307 edge_20_21_0_0 + 0.183972145086231 edge_20_22_0_0
   + 0.7906983475816075 edge_21_20_0_0 + 0.4868179166587777 edge_21_22_0_0
   + 0.2396310937713439 edge_21_23_0_0 + 0.1243238598518549 edge_21_31_0_0
   - 0.3794143715384592 edge_22_21_0_0 - 0.3395137443920642 edge_22_31_0_0
   - 0.3546176585865866 edge_23_1_0_0 - 0.36305583922818 edge_23_2_0_0
   - 0.2818084579499684 edge_23_3_0_0 - 0.5091005126814437 edge_23_4_0_0
   - 0.3166224227574336 edge_23_5_0_0 + 0.3236560780864985 edge_23_6_0_0
   - 0.0597962401916208 edge_23_7_0_0 - 0.2545135498546564 edge_23_8_0_0
   - 0.1840019085402622 edge_23_9_0_0 - 0.1682275351193583 edge_23_12_0_0
   + 0.1530934328442083 edge_23_13_0_0 + 0.0429080508063556 edge_23_14_0_0
   + 0.0815014002072892 edge_23_15_0_0 + 0.1981303444312603 edge_23_17_0_0
   + 0.5020773681917466 edge_23_19_0_0 + 0.8751504486868945 edge_23_20_0_0
   + 1.453420093524773 edge_23_21_0_0 + 2.009640401762951 edge_23_22_0_0
   + 0.8586862173544956 edge_23_23_0_0 + 0.9336489368871058 edge_23_24_0_0
   + 0.7218123270907005 edge_23_26_0_0 + 0.2813181434722773 edge_23_27_0_0
   + 0.407356767339401 edge_23_28_0_0 + 0.557863101143237 edge_23_31_0_0
   - 0.4453286530186799 edge_24_23_0_0 - 0.2306549393718764 edge_24_31_0_0
   + 0.6722324059015641 edge_26_1_0_0 - 0.9074111888767999 edge_26_2_0_0
   + 0.4288993629986202 edge_26_3_0_0 - 0.8712259844096378 edge_26_5_0_0
   - 0.1631303232339162 edge_26_6_0_0 + 0.237325239893056 edge_26_7_0_0
   - 1.019901809294728 edge_26_8_0_0 - 0.2828162470380105 edge_26_12_0_0
   + 0.2730964248489353 edge_26_13_0_0 + 0.3767881648547024 edge_26_17_0_0
   + 0.3411015131066078 edge_26_19_0_0 + 0.1836202892691759 edge_26_20_0_0
   + 0.5469227726570698 edge_26_21_0_0 + 0.1142294488644179 edge_26_22_0_0
   + 0.2529664218850794 edge_26_23_0_0 + 0.5723766461936568 edge_26_24_0_0
   + 1.986450187113765 edge_26_27_0_0 + 1.245040368623002 edge_26_28_0_0
   + 0.0798446461266024 edge_26_31_0_0 + 0.4196090805672034 edge_27_28_0_0
   + 1.090336033778393 edge_28_27_0_0 + 0.0579201885559633 edge_31_23_0_0
Subject To
 one_parent_1: edge_0_1_0_0 + edge_2_1_0_0 + edge_3_1_0_0 + edge_5_1_0_0
   + edge_7_1_0_0 + edge_17_1_0_0 + edge_23_1_0_0 + edge_26_1_0_0 = 1
 consume_one_flow_unit_1: flow_0_1_0_0 - flow_1_2_0_0 - flow_1_3_0_0
   + flow_2_1_0_0 + flow_3_1_0_0 + flow_5_1_0_0 + flow_7_1_0_0
   + flow_17_1_0_0 + flow_23_1_0_0 + flow_26_1_0_0 = 1
 one_parent_2: edge_1_2_0_0 + edge_3_2_0_0 + edge_5_2_0_0 + edge_7_2_0_0
   + edge_17_2_0_0 + edge_23_2_0_0 + edge_26_2_0_0 = 1
 consume_one_flow_unit_2: flow_1_2_0_0 - flow_2_1_0_0 - flow_2_3_0_0
   - flow_2_4_0_0 - flow_2_5_0_0 - flow_2_6_0_0 - flow_2_7_0_0
   + flow_3_2_0_0 + flow_5_2_0_0 + flow_7_2_0_0 + flow_17_2_0_0
   + flow_23_2_0_0 + flow_26_2_0_0 = 1
 one_parent_3: edge_0_3_0_0 + edge_1_3_0_0 + edge_2_3_0_0 + edge_5_3_0_0
   + edge_7_3_0_0 + edge_23_3_0_0 + edge_26_3_0_0 = 1
 consume_one_flow_unit_3: flow_0_3_0_0 + flow_1_3_0_0 + flow_2_3_0_0
   - flow_3_1_0_0 - flow_3_2_0_0 - flow_3_4_0_0 - flow_3_5_0_0
   - flow_3_6_0_0 - flow_3_7_0_0 - flow_3_8_0_0 - flow_3_9_0_0
   - flow_3_12_0_0 - flow_3_13_0_0 - flow_3_17_0_0 - flow_3_19_0_0
   - flow_3_20_0_0 - flow_3_23_0_0 - flow_3_24_0_0 - flow_3_26_0_0
   + flow_5_3_0_0 + flow_7_3_0_0 + flow_23_3_0_0 + flow_26_3_0_0 = 1
 one_parent_4: edge_2_4_0_0 + edge_3_4_0_0 + edge_5_4_0_0 + edge_6_4_0_0
   + edge_7_4_0_0 + edge_8_4_0_0 + edge_17_4_0_0 + edge_23_4_0_0 = 1
 consume_one_flow_unit_4: flow_2_4_0_0 + flow_3_4_0_0 - flow_4_5_0_0
   - flow_4_6_0_0 - flow_4_7_0_0 + flow_5_4_0_0 + flow_6_4_0_0
   + flow_7_4_0_0 + flow_8_4_0_0 + flow_17_4_0_0 + flow_23_4_0_0 = 1
 one_parent_5: edge_2_5_0_0 + edge_3_5_0_0 + edge_4_5_0_0 + edge_6_5_0_0
   + edge_7_5_0_0 + edge_23_5_0_0 + edge_26_5_0_0 = 1
 consume_one_flow_unit_5: flow_2_5_0_0 + flow_3_5_0_0 + flow_4_5_0_0
   - flow_5_1_0_0 - flow_5_2_0_0 - flow_5_3_0_0 - flow_5_4_0_0
   - flow_5_6_0_0 - flow_5_7_0_0 - flow_5_8_0_0 - flow_5_9_0_0
   - flow_5_12_0_0 - flow_5_13_0_0 - flow_5_14_0_0 - flow_5_15_0_0
   - flow_5_17_0_0 - flow_5_19_0_0 - flow_5_27_0_0 - flow_5_28_0_0
   + flow_6_5_0_0 + flow_7_5_0_0 + flow_23_5_0_0 + flow_26_5_0_0 = 1
 one_parent_6: edge_2_6_0_0 + edge_3_6_0_0 + edge_4_6_0_0 + edge_5_6_0_0
   + edge_7_6_0_0 + edge_23_6_0_0 + edge_26_6_0_0 = 1
 consume_one_flow_unit_6: flow_2_6_0_0 + flow_3_6_0_0 + flow_4_6_0_0
   + flow_5_6_0_0 - flow_6_4_0_0 - flow_6_5_0_0 + flow_7_6_0_0
   + flow_23_6_0_0 + flow_26_6_0_0 = 1
 one_parent_7: edge_0_7_0_0 + edge_2_7_0_0 + edge_3_7_0_0 + edge_4_7_0_0
   + edge_5_7_0_0 + edge_23_7_0_0 + edge_26_7_0_0 = 1
 consume_one_flow_unit_7: flow_0_7_0_0 + flow_2_7_0_0 + flow_3_7_0_0
   + flow_4_7_0_0 + flow_5_7_0_0 - flow_7_1_0_0 - flow_7_2_0_0
   - flow_7_3_0_0 - flow_7_4_0_0 - flow_7_5_0_0 - flow_7_6_0_0
   - flow_7_8_0_0 - flow_7_9_0_0 - flow_7_12_0_0 - flow_7_13_0_0
   - flow_7_14_0_0 - flow_7_15_0_0 - flow_7_17_0_0 - flow_7_19_0_0
   - flow_7_20_0_0 - flow_7_21_0_0 - flow_7_23_0_0 - flow_7_24_0_0
   - flow_7_26_0_0 - flow_7_27_0_0 - flow_7_31_0_0 + flow_23_7_0_0
   + flow_26_7_0_0 = 1
 one_parent_8: edge_3_8_0_0 + edge_5_8_0_0 + edge_7_8_0_0 + edge_12_8_0_0
   + edge_17_8_0_0 + edge_23_8_0_0 + edge_26_8_0_0 = 1
 consume_one_flow_unit_8: flow_3_8_0_0 + flow_5_8_0_0 + flow_7_8_0_0
   - flow_8_4_0_0 - flow_8_9_0_0 + flow_12_8_0_0 + flow_17_8_0_0
   + flow_23_8_0_0 + flow_26_8_0_0 = 1
 one_parent_9: edge_3_9_0_0 + edge_5_9_0_0 + edge_7_9_0_0 + edge_8_9_0_0
   + edge_12_9_0_0 + edge_17_9_0_0 + edge_23_9_0_0 = 1
 consume_one_flow_unit_9: flow_3_9_0_0 + flow_5_9_0_0 + flow_7_9_0_0
   + flow_8_9_0_0 - flow_9_12_0_0 - flow_9_14_0_0 - flow_9_15_0_0
   + flow_12_9_0_0 + flow_17_9_0_0 + flow_23_9_0_0 = 1
 one_parent_10: = 1
 consume_one_flow_unit_10: = 1
 one_parent_11: = 1
 consume_one_flow_unit_11: = 1
 one_parent_12: edge_3_12_0_0 + edge_5_12_0_0 + edge_7_12_0_0
   + edge_9_12_0_0 + edge_17_12_0_0 + edge_23_12_0_0 + edge_26_12_0_0 = 1
 consume_one_flow_unit_12: flow_3_12_0_0 + flow_5_12_0_0 + flow_7_12_0_0
   + flow_9_12_0_0 - flow_12_8_0_0 - flow_12_9_0_0 - flow_12_13_0_0
   - flow_12_14_0_0 - flow_12_15_0_0 - flow_12_17_0_0 - flow_12_19_0_0
   - flow_12_22_0_0 - flow_12_23_0_0 - flow_12_24_0_0 - flow_12_26_0_0
   - flow_12_28_0_0 + flow_17_12_0_0 + flow_23_12_0_0 + flow_26_12_0_0 = 1
 one_parent_13: edge_3_13_0_0 + edge_5_13_0_0 + edge_7_13_0_0
   + edge_12_13_0_0 + edge_17_13_0_0 + edge_23_13_0_0 + edge_26_13_0_0 = 1
 consume_one_flow_unit_13: flow_3_13_0_0 + flow_5_13_0_0 + flow_7_13_0_0
   + flow_12_13_0_0 - flow_13_15_0_0 - flow_13_17_0_0 + flow_17_13_0_0
   + flow_23_13_0_0 + flow_26_13_0_0 = 1
 one_parent_14: edge_5_14_0_0 + edge_7_14_0_0 + edge_9_14_0_0
   + edge_12_14_0_0 + edge_15_14_0_0 + edge_17_14_0_0 + edge_23_14_0_0 = 1
 consume_one_flow_unit_14: flow_5_14_0_0 + flow_7_14_0_0 + flow_9_14_0_0
   + flow_12_14_0_0 - flow_14_15_0_0 - flow_14_17_0_0 + flow_15_14_0_0
   + flow_17_14_0_0 + flow_23_14_0_0 = 1
 one_parent_15: edge_5_15_0_0 + edge_7_15_0_0 + edge_9_15_0_0
   + edge_12_15_0_0 + edge_13_15_0_0 + edge_14_15_0_0 + edge_17_15_0_0
   + edge_23_15_0_0 = 1
 consume_one_flow_unit_15: flow_5_15_0_0 + flow_7_15_0_0 + flow_9_15_0_0
   + flow_12_15_0_0 + flow_13_15_0_0 + flow_14_15_0_0 - flow_15_14_0_0
   - flow_15_17_0_0 + flow_17_15_0_0 + flow_23_15_0_0 = 1
 one_parent_16: = 1
 consume_one_flow_unit_16: = 1
 one_parent_17: edge_3_17_0_0 + edge_5_17_0_0 + edge_7_17_0_0
   + edge_12_17_0_0 + edge_13_17_0_0 + edge_14_17_0_0 + edge_15_17_0_0
   + edge_17_17_0_0 + edge_23_17_0_0 + edge_26_17_0_0 = 1
 consume_one_flow_unit_17: flow_3_17_0_0 + flow_5_17_0_0 + flow_7_17_0_0
   + flow_12_17_0_0 + flow_13_17_0_0 + flow_14_17_0_0 + flow_15_17_0_0
   - flow_17_1_0_0 - flow_17_2_0_0 - flow_17_4_0_0 - flow_17_8_0_0
   - flow_17_9_0_0 - flow_17_12_0_0 - flow_17_13_0_0 - flow_17_14_0_0
   - flow_17_15_0_0 - flow_17_19_0_0 - flow_17_20_0_0 - flow_17_21_0_0
   - flow_17_22_0_0 - flow_17_23_0_0 - flow_17_24_0_0 - flow_17_26_0_0
   - flow_17_27_0_0 + flow_23_17_0_0 + flow_26_17_0_0 = 1
 one_parent_18: = 1
 consume_one_flow_unit_18: = 1
 one_parent_19: edge_3_19_0_0 + edge_5_19_0_0 + edge_7_19_0_0
   + edge_12_19_0_0 + edge_17_19_0_0 + edge_23_19_0_0 + edge_26_19_0_0 = 1
 consume_one_flow_unit_19: flow_3_19_0_0 + flow_5_19_0_0 + flow_7_19_0_0
   + flow_12_19_0_0 + flow_17_19_0_0 - flow_19_21_0_0 + flow_23_19_0_0
   + flow_26_19_0_0 = 1
 one_parent_20: edge_3_20_0_0 + edge_7_20_0_0 + edge_17_20_0_0
   + edge_21_20_0_0 + edge_23_20_0_0 + edge_26_20_0_0 = 1
 consume_one_flow_unit_20: flow_3_20_0_0 + flow_7_20_0_0 + flow_17_20_0_0
   - flow_20_21_0_0 - flow_20_22_0_0 + flow_21_20_0_0 + flow_23_20_0_0
   + flow_26_20_0_0 = 1
 one_parent_21: edge_7_21_0_0 + edge_17_21_0_0 + edge_19_21_0_0
   + edge_20_21_0_0 + edge_22_21_0_0 + edge_23_21_0_0 + edge_26_21_0_0 = 1
 consume_one_flow_unit_21: flow_7_21_0_0 + flow_17_21_0_0 + flow_19_21_0_0
   + flow_20_21_0_0 - flow_21_20_0_0 - flow_21_22_0_0 - flow_21_23_0_0
   - flow_21_31_0_0 + flow_22_21_0_0 + flow_23_21_0_0 + flow_26_21_0_0 = 1
 one_parent_22: edge_12_22_0_0 + edge_17_22_0_0 + edge_20_22_0_0
   + edge_21_22_0_0 + edge_23_22_0_0 + edge_26_22_0_0 = 1
 consume_one_flow_unit_22: flow_12_22_0_0 + flow_17_22_0_0 + flow_20_22_0_0
   + flow_21_22_0_0 - flow_22_21_0_0 - flow_22_31_0_0 + flow_23_22_0_0
   + flow_26_22_0_0 = 1
 one_parent_23: edge_3_23_0_0 + edge_7_23_0_0 + edge_12_23_0_0
   + edge_17_23_0_0 + edge_21_23_0_0 + edge_23_23_0_0 + edge_24_23_0_0
   + edge_26_23_0_0 + edge_31_23_0_0 = 1
 consume_one_flow_unit_23: flow_3_23_0_0 + flow_7_23_0_0 + flow_12_23_0_0
   + flow_17_23_0_0 + flow_21_23_0_0 - flow_23_1_0_0 - flow_23_2_0_0
   - flow_23_3_0_0 - flow_23_4_0_0 - flow_23_5_0_0 - flow_23_6_0_0
   - flow_23_7_0_0 - flow_23_8_0_0 - flow_23_9_0_0 - flow_23_12_0_0
   - flow_23_13_0_0 - flow_23_14_0_0 - flow_23_15_0_0 - flow_23_17_0_0
   - flow_23_19_0_0 - flow_23_20_0_0 - flow_23_21_0_0 - flow_23_22_0_0
   - flow_23_24_0_0 - flow_23_26_0_0 - flow_23_27_0_0 - flow_23_28_0_0
   - flow_23_31_0_0 + flow_24_23_0_0 + flow_26_23_0_0 + flow_31_23_0_0 = 1
 one_parent_24: edge_3_24_0_0 + edge_7_24_0_0 + edge_12_24_0_0
   + edge_17_24_0_0 + edge_23_24_0_0 + edge_26_24_0_0 = 1
 consume_one_flow_unit_24: flow_3_24_0_0 + flow_7_24_0_0 + flow_12_24_0_0
   + flow_17_24_0_0 + flow_23_24_0_0 - flow_24_23_0_0 - flow_24_31_0_0
   + flow_26_24_0_0 = 1
 one_parent_25: = 1
 consume_one_flow_unit_25: = 1
 one_parent_26: edge_0_26_0_0 + edge_3_26_0_0 + edge_7_26_0_0
   + edge_12_26_0_0 + edge_17_26_0_0 + edge_23_26_0_0 = 1
 consume_one_flow_unit_26: flow_0_26_0_0 + flow_3_26_0_0 + flow_7_26_0_0
   + flow_12_26_0_0 + flow_17_26_0_0 + flow_23_26_0_0 - flow_26_1_0_0
   - flow_26_2_0_0 - flow_26_3_0_0 - flow_26_5_0_0 - flow_26_6_0_0
   - flow_26_7_0_0 - flow_26_8_0_0 - flow_26_12_0_0 - flow_26_13_0_0
   - flow_26_17_0_0 - flow_26_19_0_0 - flow_26_20_0_0 - flow_26_21_0_0
   - flow_26_22_0_0 - flow_26_23_0_0 - flow_26_24_0_0 - flow_26_27_0_0
   - flow_26_28_0_0 - flow_26_31_0_0 = 1
 one_parent_27: edge_5_27_0_0 + edge_7_27_0_0 + edge_17_27_0_0
   + edge_23_27_0_0 + edge_26_27_0_0 + edge_28_27_0_0 = 1
 consume_one_flow_unit_27: flow_5_27_0_0 + flow_7_27_0_0 + flow_17_27_0_0
   + flow_23_27_0_0 + flow_26_27_0_0 - flow_27_28_0_0 + flow_28_27_0_0 = 1
 one_parent_28: edge_5_28_0_0 + edge_12_28_0_0 + edge_23_28_0_0
   + edge_26_28_0_0 + edge_27_28_0_0 = 1
 consume_one_flow_unit_28: flow_5_28_0_0 + flow_12_28_0_0 + flow_23_28_0_0
   + flow_26_28_0_0 + flow_27_28_0_0 - flow_28_27_0_0 = 1
 one_parent_29: = 1
 consume_one_flow_unit_29: = 1
 one_parent_30: = 1
 consume_one_flow_unit_30: = 1
 one_parent_31: edge_7_31_0_0 + edge_21_31_0_0 + edge_22_31_0_0
   + edge_23_31_0_0 + edge_24_31_0_0 + edge_26_31_0_0 = 1
 consume_one_flow_unit_31: flow_7_31_0_0 + flow_21_31_0_0 + flow_22_31_0_0
   + flow_23_31_0_0 + flow_24_31_0_0 + flow_26_31_0_0 - flow_31_23_0_0 = 1
 root_flow: flow_0_1_0_0 + flow_0_3_0_0 + flow_0_7_0_0 + flow_0_26_0_0
   = 31
 inactive_no_flow_0_1_0_0: flow_0_1_0_0 - 1000 edge_0_1_0_0 <= 0
 inactive_no_flow_0_3_0_0: flow_0_3_0_0 - 1000 edge_0_3_0_0 <= 0
 inactive_no_flow_0_7_0_0: flow_0_7_0_0 - 1000 edge_0_7_0_0 <= 0
 inactive_no_flow_0_26_0_0: flow_0_26_0_0 - 1000 edge_0_26_0_0 <= 0
 inactive_no_flow_1_2_0_0: flow_1_2_0_0 - 1000 edge_1_2_0_0 <= 0
 inactive_no_flow_1_3_0_0: flow_1_3_0_0 - 1000 edge_1_3_0_0 <= 0
 inactive_no_flow_2_1_0_0: flow_2_1_0_0 - 1000 edge_2_1_0_0 <= 0
 inactive_no_flow_2_3_0_0: flow_2_3_0_0 - 1000 edge_2_3_0_0 <= 0
 inactive_no_flow_2_4_0_0: flow_2_4_0_0 - 1000 edge_2_4_0_0 <= 0
 inactive_no_flow_2_5_0_0: flow_2_5_0_0 - 1000 edge_2_5_0_0 <= 0
 inactive_no_flow_2_6_0_0: flow_2_6_0_0 - 1000 edge_2_6_0_0 <= 0
 inactive_no_flow_2_7_0_0: flow_2_7_0_0 - 1000 edge_2_7_0_0 <= 0
 inactive_no_flow_3_1_0_0: flow_3_1_0_0 - 1000 edge_3_1_0_0 <= 0
 inactive_no_flow_3_2_0_0: flow_3_2_0_0 - 1000 edge_3_2_0_0 <= 0
 inactive_no_flow_3_4_0_0: flow_3_4_0_0 - 1000 edge_3_4_0_0 <= 0
 inactive_no_flow_3_5_0_0: flow_3_5_0_0 - 1000 edge_3_5_0_0 <= 0
 inactive_no_flow_3_6_0_0: flow_3_6_0_0 - 1000 edge_3_6_0_0 <= 0
 inactive_no_flow_3_7_0_0: flow_3_7_0_0 - 1000 edge_3_7_0_0 <= 0
 inactive_no_flow_3_8_0_0: flow_3_8_0_0 - 1000 edge_3_8_0_0 <= 0
 inactive_no_flow_3_9_0_0: flow_3_9_0_0 - 1000 edge_3_9_0_0 <= 0
 inactive_no_flow_3_12_0_0: flow_3_12_0_0 - 1000 edge_3_12_0_0 <= 0
 inactive_no_flow_3_13_0_0: flow_3_13_0_0 - 1000 edge_3_13_0_0 <= 0
 inactive_no_flow_3_17_0_0: flow_3_17_0_0 - 1000 edge_3_17_0_0 <= 0
 inactive_no_flow_3_19_0_0: flow_3_19_0_0 - 1000 edge_3_19_0_0 <= 0
 inactive_no_flow_3_20_0_0: flow_3_20_0_0 - 1000 edge_3_20_0_0 <= 0
 inactive_no_flow_3_23_0_0: flow_3_23_0_0 - 1000 edge_3_23_0_0 <= 0
 inactive_no_flow_3_24_0_0: flow_3_24_0_0 - 1000 edge_3_24_0_0 <= 0
 inactive_no_flow_3_26_0_0: flow_3_26_0_0 - 1000 edge_3_26_0_0 <= 0
 inactive_no_flow_4_5_0_0: flow_4_5_0_0 - 1000 edge_4_5_0_0 <= 0
 inactive_no_flow_4_6_0_0: flow_4_6_0_0 - 1000 edge_4_6_0_0 <= 0
 inactive_no_flow_4_7_0_0: flow_4_7_0_0 - 1000 edge_4_7_0_0 <= 0
 inactive_no_flow_5_1_0_0: flow_5_1_0_0 - 1000 edge_5_1_0_0 <= 0
 inactive_no_flow_5_2_0_0: flow_5_2_0_0 - 1000 edge_5_2_0_0 <= 0
 inactive_no_flow_5_3_0_0: flow_5_3_0_0 - 1000 edge_5_3_0_0 <= 0
 inactive_no_flow_5_4_0_0: flow_5_4_0_0 - 1000 edge_5_4_0_0 <= 0
 inactive_no_flow_5_6_0_0: flow_5_6_0_0 - 1000 edge_5_6_0_0 <= 0
 inactive_no_flow_5_7_0_0: flow_5_7_0_0 - 1000 edge_5_7_0_0 <= 0
 inactive_no_flow_5_8_0_0: flow_5_8_0_0 - 1000 edge_5_8_0_0 <= 0
 inactive_no_flow_5_9_0_0: flow_5_9_0_0 - 1000 edge_5_9_0_0 <= 0
 inactive_no_flow_5_12_0_0: flow_5_12_0_0 - 1000 edge_5_12_0_0 <= 0
 inactive_no_flow_5_13_0_0: flow_5_13_0_0 - 1000 edge_5_13_0_0 <= 0
 inactive_no_flow_5_14_0_0: flow_5_14_0_0 - 1000 edge_5_14_0_0 <= 0
 inactive_no_flow_5_15_0_0: flow_5_15_0_0 - 1000 edge_5_15_0_0 <= 0
 inactive_no_flow_5_17_0_0: flow_5_17_0_0 - 1000 edge_5_17_0_0 <= 0
 inactive_no_flow_5_19_0_0: flow_5_19_0_0 - 1000 edge_5_19_0_0 <= 0
 inactive_no_flow_5_27_0_0: flow_5_27_0_0 - 1000 edge_5_27_0_0 <= 0
 inactive_no_flow_5_28_0_0: flow_5_28_0_0 - 1000 edge_5_28_0_0 <= 0
 inactive_no_flow_6_4_0_0: flow_6_4_0_0 - 1000 edge_6_4_0_0 <= 0
 inactive_no_flow_6_5_0_0: flow_6_5_0_0 - 1000 edge_6_5_0_0 <= 0
 inactive_no_flow_7_1_0_0: flow_7_1_0_0 - 1000 edge_7_1_0_0 <= 0
 inactive_no_flow_7_2_0_0: flow_7_2_0_0 - 1000 edge_7_2_0_0 <= 0
 inactive_no_flow_7_3_0_0: flow_7_3_0_0 - 1000 edge_7_3_0_0 <= 0
 inactive_no_flow_7_4_0_0: flow_7_4_0_0 - 1000 edge_7_4_0_0 <= 0
 inactive_no_flow_7_5_0_0: flow_7_5_0_0 - 1000 edge_7_5_0_0 <= 0
 inactive_no_flow_7_6_0_0: flow_7_6_0_0 - 1000 edge_7_6_0_0 <= 0
 inactive_no_flow_7_8_0_0: flow_7_8_0_0 - 1000 edge_7_8_0_0 <= 0
 inactive_no_flow_7_9_0_0: flow_7_9_0_0 - 1000 edge_7_9_0_0 <= 0
 inactive_no_flow_7_12_0_0: flow_7_12_0_0 - 1000 edge_7_12_0_0 <= 0
 inactive_no_flow_7_13_0_0: flow_7_13_0_0 - 1000 edge_7_13_0_0 <= 0
 inactive_no_flow_7_14_0_0: flow_7_14_0_0 - 1000 edge_7_14_0_0 <= 0
 inactive_no_flow_7_15_0_0: flow_7_15_0_0 - 1000 edge_7_15_0_0 <= 0
 inactive_no_flow_7_17_0_0: flow_7_17_0_0 - 1000 edge_7_17_0_0 <= 0
 inactive_no_flow_7_19_0_0: flow_7_19_0_0 - 1000 edge_7_19_0_0 <= 0
 inactive_no_flow_7_20_0_0: flow_7_20_0_0 - 1000 edge_7_20_0_0 <= 0
 inactive_no_flow_7_21_0_0: flow_7_21_0_0 - 1000 edge_7_21_0_0 <= 0
 inactive_no_flow_7_23_0_0: flow_7_23_0_0 - 1000 edge_7_23_0_0 <= 0
 inactive_no_flow_7_24_0_0: flow_7_24_0_0 - 1000 edge_7_24_0_0 <= 0
 inactive_no_flow_7_26_0_0: flow_7_26_0_0 - 1000 edge_7_26_0_0 <= 0
 inactive_no_flow_7_27_0_0: flow_7_27_0_0 - 1000 edge_7_27_0_0 <= 0
 inactive_no_flow_7_31_0_0: flow_7_31_0_0 - 1000 edge_7_31_0_0 <= 0
 inactive_no_flow_8_4_0_0: flow_8_4_0_0 - 1000 edge_8_4_0_0 <= 0
 inactive_no_flow_8_9_0_0: flow_8_9_0_0 - 1000 edge_8_9_0_0 <= 0
 inactive_no_flow_9_12_0_0: flow_9_12_0_0 - 1000 edge_9_12_0_0 <= 0
 inactive_no_flow_9_14_0_0: flow_9_14_0_0 - 1000 edge_9_14_0_0 <= 0
 inactive_no_flow_9_15_0_0: flow_9_15_0_0 - 1000 edge_9_15_0_0 <= 0
 inactive_no_flow_12_8_0_0: flow_12_8_0_0 - 1000 edge_12_8_0_0 <= 0
 inactive_no_flow_12_9_0_0: flow_12_9_0_0 - 1000 edge_12_9_0_0 <= 0
 inactive_no_flow_12_13_0_0: flow_12_13_0_0 - 1000 edge_12_13_0_0 <= 0
 inactive_no_flow_12_14_0_0: flow_12_14_0_0 - 1000 edge_12_14_0_0 <= 0
 inactive_no_flow_12_15_0_0: flow_12_15_0_0 - 1000 edge_12_15_0_0 <= 0
 inactive_no_flow_12_17_0_0: flow_12_17_0_0 - 1000 edge_12_17_0_0 <= 0
 inactive_no_flow_12_19_0_0: flow_12_19_0_0 - 1000 edge_12_19_0_0 <= 0
 inactive_no_flow_12_22_0_0: flow_12_22_0_0 - 1000 edge_12_22_0_0 <= 0
 inactive_no_flow_12_23_0_0: flow_12_23_0_0 - 1000 edge_12_23_0_0 <= 0
 inactive_no_flow_12_24_0_0: flow_12_24_0_0 - 1000 edge_12_24_0_0 <= 0
 inactive_no_flow_12_26_0_0: flow_12_26_0_0 - 1000 edge_12_26_0_0 <= 0
 inactive_no_flow_12_28_0_0: flow_12_28_0_0 - 1000 edge_12_28_0_0 <= 0
 inactive_no_flow_13_15_0_0: flow_13_15_0_0 - 1000 edge_13_15_0_0 <= 0
 inactive_no_flow_13_17_0_0: flow_13_17_0_0 - 1000 edge_13_17_0_0 <= 0
 inactive_no_flow_14_15_0_0: flow_14_15_0_0 - 1000 edge_14_15_0_0 <= 0
 inactive_no_flow_14_17_0_0: flow_14_17_0_0 - 1000 edge_14_17_0_0 <= 0
 inactive_no_flow_15_14_0_0: flow_15_14_0_0 - 1000 edge_15_14_0_0 <= 0
 inactive_no_flow_15_17_0_0: flow_15_17_0_0 - 1000 edge_15_17_0_0 <= 0
 inactive_no_flow_17_1_0_0: flow_17_1_0_0 - 1000 edge_17_1_0_0 <= 0
 inactive_no_flow_17_2_0_0: flow_17_2_0_0 - 1000 edge_17_2_0_0 <= 0
 inactive_no_flow_17_4_0_0: flow_17_4_0_0 - 1000 edge_17_4_0_0 <= 0
 inactive_no_flow_17_8_0_0: flow_17_8_0_0 - 1000 edge_17_8_0_0 <= 0
 inactive_no_flow_17_9_0_0: flow_17_9_0_0 - 1000 edge_17_9_0_0 <= 0
 inactive_no_flow_17_12_0_0: flow_17_12_0_0 - 1000 edge_17_12_0_0 <= 0
 inactive_no_flow_17_13_0_0: flow_17_13_0_0 - 1000 edge_17_13_0_0 <= 0
 inactive_no_flow_17_14_0_0: flow_17_14_0_0 - 1000 edge_17_14_0_0 <= 0
 inactive_no_flow_17_15_0_0: flow_17_15_0_0 - 1000 edge_17_15_0_0 <= 0
 inactive_no_flow_17_17_0_0: flow_17_17_0_0 - 1000 edge_17_17_0_0 <= 0
 inactive_no_flow_17_19_0_0: flow_17_19_0_0 - 1000 edge_17_19_0_0 <= 0
 inactive_no_flow_17_20_0_0: flow_17_20_0_0 - 1000 edge_17_20_0_0 <= 0
 inactive_no_flow_17_21_0_0: flow_17_21_0_0 - 1000 edge_17_21_0_0 <= 0
 inactive_no_flow_17_22_0_0: flow_17_22_0_0 - 1000 edge_17_22_0_0 <= 0
 inactive_no_flow_17_23_0_0: flow_17_23_0_0 - 1000 edge_17_23_0_0 <= 0
 inactive_no_flow_17_24_0_0: flow_17_24_0_0 - 1000 edge_17_24_0_0 <= 0
 inactive_no_flow_17_26_0_0: flow_17_26_0_0 - 1000 edge_17_26_0_0 <= 0
 inactive_no_flow_17_27_0_0: flow_17_27_0_0 - 1000 edge_17_27_0_0 <= 0
 inactive_no_flow_19_21_0_0: flow_19_21_0_0 - 1000 edge_19_21_0_0 <= 0
 inactive_no_flow_20_21_0_0: flow_20_21_0_0 - 1000 edge_20_21_0_0 <= 0
 inactive_no_flow_20_22_0_0: flow_20_22_0_0 - 1000 edge_20_22_0_0 <= 0
 inactive_no_flow_21_20_0_0: flow_21_20_0_0 - 1000 edge_21_20_0_0 <= 0
 inactive_no_flow_21_22_0_0: flow_21_22_0_0 - 1000 edge_21_22_0_0 <= 0
 inactive_no_flow_21_23_0_0: flow_21_23_0_0 - 1000 edge_21_23_0_0 <= 0
 inactive_no_flow_21_31_0_0: flow_21_31_0_0 - 1000 edge_21_31_0_0 <= 0
 inactive_no_flow_22_21_0_0: flow_22_21_0_0 - 1000 edge_22_21_0_0 <= 0
 inactive_no_flow_22_31_0_0: flow_22_31_0_0 - 1000 edge_22_31_0_0 <= 0
 inactive_no_flow_23_1_0_0: flow_23_1_0_0 - 1000 edge_23_1_0_0 <= 0
 inactive_no_flow_23_2_0_0: flow_23_2_0_0 - 1000 edge_23_2_0_0 <= 0
 inactive_no_flow_23_3_0_0: flow_23_3_0_0 - 1000 edge_23_3_0_0 <= 0
 inactive_no_flow_23_4_0_0: flow_23_4_0_0 - 1000 edge_23_4_0_0 <= 0
 inactive_no_flow_23_5_0_0: flow_23_5_0_0 - 1000 edge_23_5_0_0 <= 0
 inactive_no_flow_23_6_0_0: flow_23_6_0_0 - 1000 edge_23_6_0_0 <= 0
 inactive_no_flow_23_7_0_0: flow_23_7_0_0 - 1000 edge_23_7_0_0 <= 0
 inactive_no_flow_23_8_0_0: flow_23_8_0_0 - 1000 edge_23_8_0_0 <= 0
 inactive_no_flow_23_9_0_0: flow_23_9_0_0 - 1000 edge_23_9_0_0 <= 0
 inactive_no_flow_23_12_0_0: flow_23_12_0_0 - 1000 edge_23_12_0_0 <= 0
 inactive_no_flow_23_13_0_0: flow_23_13_0_0 - 1000 edge_23_13_0_0 <= 0
 inactive_no_flow_23_14_0_0: flow_23_14_0_0 - 1000 edge_23_14_0_0 <= 0
 inactive_no_flow_23_15_0_0: flow_23_15_0_0 - 1000 edge_23_15_0_0 <= 0
 inactive_no_flow_23_17_0_0: flow_23_17_0_0 - 1000 edge_23_17_0_0 <= 0
 inactive_no_flow_23_19_0_0: flow_23_19_0_0 - 1000 edge_23_19_0_0 <= 0
 inactive_no_flow_23_20_0_0: flow_23_20_0_0 - 1000 edge_23_20_0_0 <= 0
 inactive_no_flow_23_21_0_0: flow_23_21_0_0 - 1000 edge_23_21_0_0 <= 0
 inactive_no_flow_23_22_0_0: flow_23_22_0_0 - 1000 edge_23_22_0_0 <= 0
 inactive_no_flow_23_23_0_0: flow_23_23_0_0 - 1000 edge_23_23_0_0 <= 0
 inactive_no_flow_23_24_0_0: flow_23_24_0_0 - 1000 edge_23_24_0_0 <= 0
 inactive_no_flow_23_26_0_0: flow_23_26_0_0 - 1000 edge_23_26_0_0 <= 0
 inactive_no_flow_23_27_0_0: flow_23_27_0_0 - 1000 edge_23_27_0_0 <= 0
 inactive_no_flow_23_28_0_0: flow_23_28_0_0 - 1000 edge_23_28_0_0 <= 0
 inactive_no_flow_23_31_0_0: flow_23_31_0_0 - 1000 edge_23_31_0_0 <= 0
 inactive_no_flow_24_23_0_0: flow_24_23_0_0 - 1000 edge_24_23_0_0 <= 0
 inactive_no_flow_24_31_0_0: flow_24_31_0_0 - 1000 edge_24_31_0_0 <= 0
 inactive_no_flow_26_1_0_0: flow_26_1_0_0 - 1000 edge_26_1_0_0 <= 0
 inactive_no_flow_26_2_0_0: flow_26_2_0_0 - 1000 edge_26_2_0_0 <= 0
 inactive_no_flow_26_3_0_0: flow_26_3_0_0 - 1000 edge_26_3_0_0 <= 0
 inactive_no_flow_26_5_0_0: flow_26_5_0_0 - 1000 edge_26_5_0_0 <= 0
 inactive_no_flow_26_6_0_0: flow_26_6_0_0 - 1000 edge_26_6_0_0 <= 0
 inactive_no_flow_26_7_0_0: flow_26_7_0_0 - 1000 edge_26_7_0_0 <= 0
 inactive_no_flow_26_8_0_0: flow_26_8_0_0 - 1000 edge_26_8_0_0 <= 0
 inactive_no_flow_26_12_0_0: flow_26_12_0_0 - 1000 edge_26_12_0_0 <= 0
 inactive_no_flow_26_13_0_0: flow_26_13_0_0 - 1000 edge_26_13_0_0 <= 0
 inactive_no_flow_26_17_0_0: flow_26_17_0_0 - 1000 edge_26_17_0_0 <= 0
 inactive_no_flow_26_19_0_0: flow_26_19_0_0 - 1000 edge_26_19_0_0 <= 0
 inactive_no_flow_26_20_0_0: flow_26_20_0_0 - 1000 edge_26_20_0_0 <= 0
 inactive_no_flow_26_21_0_0: flow_26_21_0_0 - 1000 edge_26_21_0_0 <= 0
 inactive_no_flow_26_22_0_0: flow_26_22_0_0 - 1000 edge_26_22_0_0 <= 0
 inactive_no_flow_26_23_0_0: flow_26_23_0_0 - 1000 edge_26_23_0_0 <= 0
 inactive_no_flow_26_24_0_0: flow_26_24_0_0 - 1000 edge_26_24_0_0 <= 0
 inactive_no_flow_26_27_0_0: flow_26_27_0_0 - 1000 edge_26_27_0_0 <= 0
 inactive_no_flow_26_28_0_0: flow_26_28_0_0 - 1000 edge_26_28_0_0 <= 0
 inactive_no_flow_26_31_0_0: flow_26_31_0_0 - 1000 edge_26_31_0_0 <= 0
 inactive_no_flow_27_28_0_0: flow_27_28_0_0 - 1000 edge_27_28_0_0 <= 0
 inactive_no_flow_28_27_0_0: flow_28_27_0_0 - 1000 edge_28_27_0_0 <= 0
 inactive_no_flow_31_23_0_0: flow_31_23_0_0 - 1000 edge_31_23_0_0 <= 0
Bounds
Binaries
 edge_0_1_0_0 edge_0_3_0_0 edge_0_7_0_0 edge_0_26_0_0 edge_1_2_0_0
 edge_1_3_0_0 edge_2_1_0_0 edge_2_3_0_0 edge_2_4_0_0 edge_2_5_0_0
 edge_2_6_0_0 edge_2_7_0_0 edge_3_1_0_0 edge_3_2_0_0 edge_3_4_0_0
 edge_3_5_0_0 edge_3_6_0_0 edge_3_7_0_0 edge_3_8_0_0 edge_3_9_0_0
 edge_3_12_0_0 edge_3_13_0_0 edge_3_17_0_0 edge_3_19_0_0 edge_3_20_0_0
 edge_3_23_0_0 edge_3_24_0_0 edge_3_26_0_0 edge_4_5_0_0 edge_4_6_0_0
 edge_4_7_0_0 edge_5_1_0_0 edge_5_2_0_0 edge_5_3_0_0 edge_5_4_0_0
 edge_5_6_0_0 edge_5_7_0_0 edge_5_8_0_0 edge_5_9_0_0 edge_5_12_0_0
 edge_5_13_0_0 edge_5_14_0_0 edge_5_15_0_0 edge_5_17_0_0 edge_5_19_0_0
 edge_5_27_0_0 edge_5_28_0_0 edge_6_4_0_0 edge_6_5_0_0 edge_7_1_0_0
 edge_7_2_0_0 edge_7_3_0_0 edge_7_4_0_0 edge_7_5_0_0 edge_7_6_0_0
 edge_7_8_0_0 edge_7_9_0_0 edge_7_12_0_0 edge_7_13_0_0 edge_7_14_0_0
 edge_7_15_0_0 edge_7_17_0_0 edge_7_19_0_0 edge_7_20_0_0 edge_7_21_0_0
 edge_7_23_0_0 edge_7_24_0_0 edge_7_26_0_0 edge_7_27_0_0 edge_7_31_0_0
 edge_8_4_0_0 edge_8_9_0_0 edge_9_12_0_0 edge_9_14_0_0 edge_9_15_0_0
 edge_12_8_0_0 edge_12_9_0_0 edge_12_13_0_0 edge_12_14_0_0 edge_12_15_0_0
 edge_12_17_0_0 edge_12_19_0_0 edge_12_22_0_0 edge_12_23_0_0 edge_12_24_0_0
 edge_12_26_0_0 edge_12_28_0_0 edge_13_15_0_0 edge_13_17_0_0 edge_14_15_0_0
 edge_14_17_0_0 edge_15_14_0_0 edge_15_17_0_0 edge_17_1_0_0 edge_17_2_0_0
 edge_17_4_0_0 edge_17_8_0_0 edge_17_9_0_0 edge_17_12_0_0 edge_17_13_0_0
 edge_17_14_0_0 edge_17_15_0_0 edge_17_17_0_0 edge_17_19_0_0 edge_17_20_0_0
 edge_17_21_0_0 edge_17_22_0_0 edge_17_23_0_0 edge_17_24_0_0 edge_17_26_0_0
 edge_17_27_0_0 edge_19_21_0_0 edge_20_21_0_0 edge_20_22_0_0 edge_21_20_0_0
 edge_21_22_0_0 edge_21_23_0_0 edge_21_31_0_0 edge_22_21_0_0 edge_22_31_0_0
 edge_23_1_0_0 edge_23_2_0_0 edge_23_3_0_0 edge_23_4_0_0 edge_23_5_0_0
 edge_23_6_0_0 edge_23_7_0_0 edge_23_8_0_0 edge_23_9_0_0 edge_23_12_0_0
 edge_23_13_0_0 edge_23_14_0_0 edge_23_15_0_0 edge_23_17_0_0 edge_23_19_0_0
 edge_23_20_0_0 edge_23_21_0_0 edge_23_22_0_0 edge_23_23_0_0 edge_23_24_0_0
 edge_23_26_0_0 edge_23_27_0_0 edge_23_28_0_0 edge_23_31_0_0 edge_24_23_0_0
 edge_24_31_0_0 edge_26_1_0_0 edge_26_2_0_0 edge_26_3_0_0 edge_26_5_0_0
 edge_26_6_0_0 edge_26_7_0_0 edge_26_8_0_0 edge_26_12_0_0 edge_26_13_0_0
 edge_26_17_0_0 edge_26_19_0_0 edge_26_20_0_0 edge_26_21_0_0 edge_26_22_0_0
 edge_26_23_0_0 edge_26_24_0_0 edge_26_27_0_0 edge_26_28_0_0 edge_26_31_0_0
 edge_27_28_0_0 edge_28_27_0_0 edge_31_23_0_0
End
